18
3 15
3 1
3 2
3 5
3 8
15 0
15 5
15 2
15 11
6 9
6 17
6 7
6 4
6 8
9 4
9 2
9 7
9 12
1 11
1 16
1 10
1 7
10 17
10 12
10 7
10 13
17 13
17 12
17 5
4 8
4 0
4 16
8 11
8 7
0 14
0 11
0 2
14 12
14 16
14 13
14 5
13 16
13 2
12 16
11 5
